benchmarks/VRPTW/TSPTW/solution/n20w100.002.txt.solution
1 11 9 16 2 5 20 6 12 17 18 3 13 15 10 8 14 4 7 19 21 
222
